ISTART = 1
ICHARG = 1
LORBIT = 10
NEDOS = 2000
ISPIN = 1
PREC = Accurate
ENCUT = 600.0
LREAL = .False
ISMEAR = 0
SIGMA = 0.05
EDIFF = 1E-5
EDIFFG = -1E-3
# POTIM = 0.05
NSW = 0
ISIF = 3
IBRION = 2
PSTRESS = 0

LAECHG = TRUE
LWAVE = TRUE
LCHARG = TRUE
LELF = FALSE
NPAR = 4 