   Ce   Rh   N    O                     
   1.00000000000000     
    15.5323886870999992    0.0000000000000000    0.0000000000000000
    -7.7661943435999996   13.4514431845000004    0.0000000000000000
     0.0000000000000000    0.0000000000000000   22.6819705963000011
   Ce   Rh   N    O 
    32     4     2    65
Selective dynamics
Direct
  0.0833330009999997  0.1666669990000003  0.1048370000000034   F   F   F
  0.3333329860000021  0.1666669990000003  0.1048370000000034   F   F   F
  0.5833330150000009  0.1666669990000003  0.1048370000000034   F   F   F
  0.8333330150000009  0.1666669990000003  0.1048370000000034   F   F   F
  0.0833330009999997  0.4166670139999979  0.1048370000000034   F   F   F
  0.3333329860000021  0.4166670139999979  0.1048370000000034   F   F   F
  0.5833330150000009  0.4166670139999979  0.1048370000000034   F   F   F
  0.8333330150000009  0.4166670139999979  0.1048370000000034   F   F   F
  0.0833330009999997  0.6666669849999991  0.1048370000000034   F   F   F
  0.3333329860000021  0.6666669849999991  0.1048370000000034   F   F   F
  0.5833330150000009  0.6666669849999991  0.1048370000000034   F   F   F
  0.8333330150000009  0.6666669849999991  0.1048370000000034   F   F   F
  0.0833330009999997  0.9166669849999991  0.1048370000000034   F   F   F
  0.3333329860000021  0.9166669849999991  0.1048370000000034   F   F   F
  0.5833330150000009  0.9166669849999991  0.1048370000000034   F   F   F
  0.8333330150000009  0.9166669849999991  0.1048370000000034   F   F   F
  0.1663946460827503  0.0836491393452476  0.2435842868471454   T   T   T
  0.4156267951506436  0.0831342487700724  0.2437656539859674   T   T   T
  0.6667684783884340  0.0852184888502237  0.2429367002918710   T   T   T
  0.9195563208498854  0.0855411063333236  0.2430570230110192   T   T   T
  0.1653393995417218  0.3328646183563961  0.2427755916727605   T   T   T
  0.4118860306313721  0.3236136220886721  0.2427519135673677   T   T   T
  0.6678108574423760  0.3327493087876334  0.2432516372922748   T   T   T
  0.9166147772229607  0.3329576182900240  0.2423038819493257   T   T   T
  0.1642243673370558  0.5814541644815847  0.2429537828456390   T   T   T
  0.4089984452122835  0.5804575900641993  0.2446928025123256   T   T   T
  0.6715229309950388  0.5790722681457439  0.2449569148752815   T   T   T
  0.9181786463404364  0.5823563742837834  0.2432523503052764   T   T   T
  0.1657798417357981  0.8322824283686572  0.2439308121380179   T   T   T
  0.4102574527332550  0.8371610126203279  0.2427203718568194   T   T   T
  0.6702316372916997  0.8421949835038731  0.2409470581261743   T   T   T
  0.9259447890057686  0.8366665103389508  0.2462284837228452   T   T   T
  0.5360724600523881  0.5812083161610531  0.3593885276374849   T   T   T
  0.5348223529121654  0.7416652204036467  0.3737465208854545   T   T   T
  0.6926181712660480  0.7425939431612250  0.3718229649527984   T   T   T
  0.5749794130946881  0.6653030256206947  0.4593222968287591   T   T   T
  0.5965245423950165  0.8030724602607364  0.4519061601293899   T   T   T
  0.6908670302476594  0.8176087324931700  0.4452236276138848   T   T   T
  0.2500000000000000  0.2500000000000000  0.0698909979999982   F   F   F
  0.7500000000000000  0.2500000000000000  0.0698909979999982   F   F   F
  0.2500000000000000  0.7500000000000000  0.0698909979999982   F   F   F
  0.7500000000000000  0.7500000000000000  0.0698909979999982   F   F   F
  0.0000000000000000  0.0000000000000000  0.0698909979999982   F   F   F
  0.2500000000000000  0.0000000000000000  0.0698909979999982   F   F   F
  0.5000000000000000  0.0000000000000000  0.0698909979999982   F   F   F
  0.7500000000000000  0.0000000000000000  0.0698909979999982   F   F   F
  0.0000000000000000  0.2500000000000000  0.0698909979999982   F   F   F
  0.5000000000000000  0.2500000000000000  0.0698909979999982   F   F   F
  0.0000000000000000  0.5000000000000000  0.0698909979999982   F   F   F
  0.2500000000000000  0.5000000000000000  0.0698909979999982   F   F   F
  0.5000000000000000  0.5000000000000000  0.0698909979999982   F   F   F
  0.7500000000000000  0.5000000000000000  0.0698909979999982   F   F   F
  0.0000000000000000  0.7500000000000000  0.0698909979999982   F   F   F
  0.5000000000000000  0.7500000000000000  0.0698909979999982   F   F   F
  0.1666669990000003  0.0833330009999997  0.1397819970000000   F   F   F
  0.6666669849999991  0.0833330009999997  0.1397819970000000   F   F   F
  0.1666669990000003  0.3333329860000021  0.1397819970000000   F   F   F
  0.4166670139999979  0.3333329860000021  0.1397819970000000   F   F   F
  0.6666669849999991  0.3333329860000021  0.1397819970000000   F   F   F
  0.9166669849999991  0.3333329860000021  0.1397819970000000   F   F   F
  0.1666669990000003  0.5833330150000009  0.1397819970000000   F   F   F
  0.6666669849999991  0.5833330150000009  0.1397819970000000   F   F   F
  0.1666669990000003  0.8333330150000009  0.1397819970000000   F   F   F
  0.4166670139999979  0.8333330150000009  0.1397819970000000   F   F   F
  0.6666669849999991  0.8333330150000009  0.1397819970000000   F   F   F
  0.9166659710000005  0.8333330150000009  0.1397819970000000   F   F   F
  0.4166670139999979  0.0833330009999997  0.1397819970000000   F   F   F
  0.9166669849999991  0.0833330009999997  0.1397819970000000   F   F   F
  0.4166670139999979  0.5833330150000009  0.1397819970000000   F   F   F
  0.9166669849999991  0.5833330150000009  0.1397819970000000   F   F   F
  0.0811690839005834  0.4150998998318016  0.2059063563514485   T   T   T
  0.5782082475878809  0.4127345733833394  0.2090254001497769   T   T   T
  0.0892924769748973  0.9197350648319897  0.2076625504986822   T   T   T
  0.5804177751611448  0.9125012312832084  0.2081617402720184   T   T   T
  0.0841937513619868  0.1689363647044715  0.2060453461826626   T   T   T
  0.3328453515775820  0.1656339525689106  0.2066041680828548   T   T   T
  0.5834985726240589  0.1663688743804741  0.2071184315265882   T   T   T
  0.8329673434022169  0.1664575390229572  0.2070242998937104   T   T   T
  0.3351383871789508  0.4137613663891884  0.2090497747613043   T   T   T
  0.8340470883162823  0.4143726358773492  0.2061889788955185   T   T   T
  0.0845397439115345  0.6651079545036822  0.2063484412659591   T   T   T
  0.3351394512004688  0.6718773190599521  0.2090650340022506   T   T   T
  0.5880685829581225  0.6769214753681467  0.2138582347749676   T   T   T
  0.8350377797587072  0.6653183136001175  0.2094405136872979   T   T   T
  0.3326591199208053  0.9172282995048704  0.2067136114547807   T   T   T
  0.8289720085328511  0.9153537443532755  0.2090555742435427   T   T   T
  0.0065913097490053  0.0130441990514285  0.2796743638259898   T   T   T
  0.2532330523682234  0.0020100667253828  0.2793548799231971   T   T   T
  0.4983812446033085  0.9998935206059514  0.2779004288754976   T   T   T
  0.7477995868597205  0.0012628635946541  0.2785106348397619   T   T   T
  0.9998762382065252  0.2495935152468576  0.2776929339918510   T   T   T
  0.4964575609090289  0.2454236692580878  0.2789490172101239   T   T   T
  0.0004065173591528  0.4983538457376824  0.2779047402640487   T   T   T
  0.2372739475700811  0.4939849394170110  0.2791076978651432   T   T   T
  0.4907272523585036  0.4810667507165292  0.3031702371844887   T   T   T
  0.7545747124424622  0.4904114361378973  0.2802550411852280   T   T   T
  0.0092298449009220  0.7456202714011368  0.2809742593462161   T   T   T
  0.4959969428299544  0.7648653379109547  0.2992116414237529   T   T   T
  0.2496446298600006  0.2470648681902929  0.2786348419859834   T   T   T
  0.7488258226986702  0.2476439374631596  0.2781682720007268   T   T   T
  0.2505708456512323  0.7528329707494521  0.2793119864213764   T   T   T
  0.7596258333019605  0.7592956368003101  0.3013109713199995   T   T   T
  0.7670998418374566  0.8789537977594009  0.4711062690540899   T   T   T
 
  0.00000000E+00  0.00000000E+00  0.00000000E+00
  0.00000000E+00  0.00000000E+00  0.00000000E+00
  0.00000000E+00  0.00000000E+00  0.00000000E+00
  0.00000000E+00  0.00000000E+00  0.00000000E+00
  0.00000000E+00  0.00000000E+00  0.00000000E+00
  0.00000000E+00  0.00000000E+00  0.00000000E+00
  0.00000000E+00  0.00000000E+00  0.00000000E+00
  0.00000000E+00  0.00000000E+00  0.00000000E+00
  0.00000000E+00  0.00000000E+00  0.00000000E+00
  0.00000000E+00  0.00000000E+00  0.00000000E+00
  0.00000000E+00  0.00000000E+00  0.00000000E+00
  0.00000000E+00  0.00000000E+00  0.00000000E+00
  0.00000000E+00  0.00000000E+00  0.00000000E+00
  0.00000000E+00  0.00000000E+00  0.00000000E+00
  0.00000000E+00  0.00000000E+00  0.00000000E+00
  0.00000000E+00  0.00000000E+00  0.00000000E+00
  0.00000000E+00  0.00000000E+00  0.00000000E+00
  0.00000000E+00  0.00000000E+00  0.00000000E+00
  0.00000000E+00  0.00000000E+00  0.00000000E+00
  0.00000000E+00  0.00000000E+00  0.00000000E+00
  0.00000000E+00  0.00000000E+00  0.00000000E+00
  0.00000000E+00  0.00000000E+00  0.00000000E+00
  0.00000000E+00  0.00000000E+00  0.00000000E+00
  0.00000000E+00  0.00000000E+00  0.00000000E+00
  0.00000000E+00  0.00000000E+00  0.00000000E+00
  0.00000000E+00  0.00000000E+00  0.00000000E+00
  0.00000000E+00  0.00000000E+00  0.00000000E+00
  0.00000000E+00  0.00000000E+00  0.00000000E+00
  0.00000000E+00  0.00000000E+00  0.00000000E+00
  0.00000000E+00  0.00000000E+00  0.00000000E+00
  0.00000000E+00  0.00000000E+00  0.00000000E+00
  0.00000000E+00  0.00000000E+00  0.00000000E+00
  0.00000000E+00  0.00000000E+00  0.00000000E+00
  0.00000000E+00  0.00000000E+00  0.00000000E+00
  0.00000000E+00  0.00000000E+00  0.00000000E+00
  0.00000000E+00  0.00000000E+00  0.00000000E+00
  0.00000000E+00  0.00000000E+00  0.00000000E+00
  0.00000000E+00  0.00000000E+00  0.00000000E+00
  0.00000000E+00  0.00000000E+00  0.00000000E+00
  0.00000000E+00  0.00000000E+00  0.00000000E+00
  0.00000000E+00  0.00000000E+00  0.00000000E+00
  0.00000000E+00  0.00000000E+00  0.00000000E+00
  0.00000000E+00  0.00000000E+00  0.00000000E+00
  0.00000000E+00  0.00000000E+00  0.00000000E+00
  0.00000000E+00  0.00000000E+00  0.00000000E+00
  0.00000000E+00  0.00000000E+00  0.00000000E+00
  0.00000000E+00  0.00000000E+00  0.00000000E+00
  0.00000000E+00  0.00000000E+00  0.00000000E+00
  0.00000000E+00  0.00000000E+00  0.00000000E+00
  0.00000000E+00  0.00000000E+00  0.00000000E+00
  0.00000000E+00  0.00000000E+00  0.00000000E+00
  0.00000000E+00  0.00000000E+00  0.00000000E+00
  0.00000000E+00  0.00000000E+00  0.00000000E+00
  0.00000000E+00  0.00000000E+00  0.00000000E+00
  0.00000000E+00  0.00000000E+00  0.00000000E+00
  0.00000000E+00  0.00000000E+00  0.00000000E+00
  0.00000000E+00  0.00000000E+00  0.00000000E+00
  0.00000000E+00  0.00000000E+00  0.00000000E+00
  0.00000000E+00  0.00000000E+00  0.00000000E+00
  0.00000000E+00  0.00000000E+00  0.00000000E+00
  0.00000000E+00  0.00000000E+00  0.00000000E+00
  0.00000000E+00  0.00000000E+00  0.00000000E+00
  0.00000000E+00  0.00000000E+00  0.00000000E+00
  0.00000000E+00  0.00000000E+00  0.00000000E+00
  0.00000000E+00  0.00000000E+00  0.00000000E+00
  0.00000000E+00  0.00000000E+00  0.00000000E+00
  0.00000000E+00  0.00000000E+00  0.00000000E+00
  0.00000000E+00  0.00000000E+00  0.00000000E+00
  0.00000000E+00  0.00000000E+00  0.00000000E+00
  0.00000000E+00  0.00000000E+00  0.00000000E+00
  0.00000000E+00  0.00000000E+00  0.00000000E+00
  0.00000000E+00  0.00000000E+00  0.00000000E+00
  0.00000000E+00  0.00000000E+00  0.00000000E+00
  0.00000000E+00  0.00000000E+00  0.00000000E+00
  0.00000000E+00  0.00000000E+00  0.00000000E+00
  0.00000000E+00  0.00000000E+00  0.00000000E+00
  0.00000000E+00  0.00000000E+00  0.00000000E+00
  0.00000000E+00  0.00000000E+00  0.00000000E+00
  0.00000000E+00  0.00000000E+00  0.00000000E+00
  0.00000000E+00  0.00000000E+00  0.00000000E+00
  0.00000000E+00  0.00000000E+00  0.00000000E+00
  0.00000000E+00  0.00000000E+00  0.00000000E+00
  0.00000000E+00  0.00000000E+00  0.00000000E+00
  0.00000000E+00  0.00000000E+00  0.00000000E+00
  0.00000000E+00  0.00000000E+00  0.00000000E+00
  0.00000000E+00  0.00000000E+00  0.00000000E+00
  0.00000000E+00  0.00000000E+00  0.00000000E+00
  0.00000000E+00  0.00000000E+00  0.00000000E+00
  0.00000000E+00  0.00000000E+00  0.00000000E+00
  0.00000000E+00  0.00000000E+00  0.00000000E+00
  0.00000000E+00  0.00000000E+00  0.00000000E+00
  0.00000000E+00  0.00000000E+00  0.00000000E+00
  0.00000000E+00  0.00000000E+00  0.00000000E+00
  0.00000000E+00  0.00000000E+00  0.00000000E+00
  0.00000000E+00  0.00000000E+00  0.00000000E+00
  0.00000000E+00  0.00000000E+00  0.00000000E+00
  0.00000000E+00  0.00000000E+00  0.00000000E+00
  0.00000000E+00  0.00000000E+00  0.00000000E+00
  0.00000000E+00  0.00000000E+00  0.00000000E+00
  0.00000000E+00  0.00000000E+00  0.00000000E+00
  0.00000000E+00  0.00000000E+00  0.00000000E+00
  0.00000000E+00  0.00000000E+00  0.00000000E+00
  0.00000000E+00  0.00000000E+00  0.00000000E+00
