   Ce   Rh   N    O                               
   1.0000000000000000
    15.5323886870999992    0.0000000000000000    0.0000000000000000
    -7.7661943435999996   13.4514431845000004    0.0000000000000000
     0.0000000000000000    0.0000000000000000   22.6819705963000011
   Ce   Rh   N    O 
    32     4     2    65
Selective dynamics
Direct
  0.0833330009999997  0.1666669990000003  0.1048370000000034   F   F   F
  0.3333329860000021  0.1666669990000003  0.1048370000000034   F   F   F
  0.5833330150000009  0.1666669990000003  0.1048370000000034   F   F   F
  0.8333330150000009  0.1666669990000003  0.1048370000000034   F   F   F
  0.0833330009999997  0.4166670139999979  0.1048370000000034   F   F   F
  0.3333329860000021  0.4166670139999979  0.1048370000000034   F   F   F
  0.5833330150000009  0.4166670139999979  0.1048370000000034   F   F   F
  0.8333330150000009  0.4166670139999979  0.1048370000000034   F   F   F
  0.0833330009999997  0.6666669849999991  0.1048370000000034   F   F   F
  0.3333329860000021  0.6666669849999991  0.1048370000000034   F   F   F
  0.5833330150000009  0.6666669849999991  0.1048370000000034   F   F   F
  0.8333330150000009  0.6666669849999991  0.1048370000000034   F   F   F
  0.0833330009999997  0.9166669849999991  0.1048370000000034   F   F   F
  0.3333329860000021  0.9166669849999991  0.1048370000000034   F   F   F
  0.5833330150000009  0.9166669849999991  0.1048370000000034   F   F   F
  0.8333330150000009  0.9166669849999991  0.1048370000000034   F   F   F
  0.1663946460827520  0.0836491393452471  0.2435842868471489   T   T   T
  0.4156267951506468  0.0831342487700742  0.2437656539859674   T   T   T
  0.6667684783884340  0.0852184888502252  0.2429367002918741   T   T   T
  0.9195563208498887  0.0855411063333240  0.2430570230110170   T   T   T
  0.1653393995417200  0.3328646183563934  0.2427755916727575   T   T   T
  0.4118860306313702  0.3236136220886689  0.2427519135673683   T   T   T
  0.6678108574423796  0.3327493087876327  0.2432516372922778   T   T   T
  0.9166147772229615  0.3329576182900245  0.2423038819493244   T   T   T
  0.1642243673370555  0.5814541644815830  0.2429537828456415   T   T   T
  0.4089984452122801  0.5804575900641966  0.2446928025123290   T   T   T
  0.6715229309950381  0.5790722681457426  0.2449569148752848   T   T   T
  0.9181786463404362  0.5823563742837855  0.2432523503052757   T   T   T
  0.1657798417357952  0.8322824283686585  0.2439308121380179   T   T   T
  0.4102574527332576  0.8371610126203256  0.2427203718568167   T   T   T
  0.6702316372916988  0.8421949835038703  0.2409470581261767   T   T   T
  0.9259447890057679  0.8366665103389486  0.2462284837228418   T   T   T
  0.5360724600523877  0.5812083161610498  0.3593885276374871   T   T   T
  0.5348223529121677  0.7416652204036487  0.3737465208854567   T   T   T
  0.6926181712660514  0.7425939431612214  0.3718229649527949   T   T   T
  0.5749794130946868  0.6653030256206919  0.4593222968287617   T   T   T
  0.5965245423950191  0.8030724602607341  0.4519061601293870   T   T   T
  0.6908670302476616  0.8176087324931700  0.4452236276138813   T   T   T
  0.2500000000000000  0.2500000000000000  0.0698909979999982   F   F   F
  0.7500000000000000  0.2500000000000000  0.0698909979999982   F   F   F
  0.2500000000000000  0.7500000000000000  0.0698909979999982   F   F   F
  0.7500000000000000  0.7500000000000000  0.0698909979999982   F   F   F
  0.0000000000000000  0.0000000000000000  0.0698909979999982   F   F   F
  0.2500000000000000  0.0000000000000000  0.0698909979999982   F   F   F
  0.5000000000000000  0.0000000000000000  0.0698909979999982   F   F   F
  0.7500000000000000  0.0000000000000000  0.0698909979999982   F   F   F
  0.0000000000000000  0.2500000000000000  0.0698909979999982   F   F   F
  0.5000000000000000  0.2500000000000000  0.0698909979999982   F   F   F
  0.0000000000000000  0.5000000000000000  0.0698909979999982   F   F   F
  0.2500000000000000  0.5000000000000000  0.0698909979999982   F   F   F
  0.5000000000000000  0.5000000000000000  0.0698909979999982   F   F   F
  0.7500000000000000  0.5000000000000000  0.0698909979999982   F   F   F
  0.0000000000000000  0.7500000000000000  0.0698909979999982   F   F   F
  0.5000000000000000  0.7500000000000000  0.0698909979999982   F   F   F
  0.1666669990000003  0.0833330009999997  0.1397819970000000   F   F   F
  0.6666669849999991  0.0833330009999997  0.1397819970000000   F   F   F
  0.1666669990000003  0.3333329860000021  0.1397819970000000   F   F   F
  0.4166670139999979  0.3333329860000021  0.1397819970000000   F   F   F
  0.6666669849999991  0.3333329860000021  0.1397819970000000   F   F   F
  0.9166669849999991  0.3333329860000021  0.1397819970000000   F   F   F
  0.1666669990000003  0.5833330150000009  0.1397819970000000   F   F   F
  0.6666669849999991  0.5833330150000009  0.1397819970000000   F   F   F
  0.1666669990000003  0.8333330150000009  0.1397819970000000   F   F   F
  0.4166670139999979  0.8333330150000009  0.1397819970000000   F   F   F
  0.6666669849999991  0.8333330150000009  0.1397819970000000   F   F   F
  0.9166659710000005  0.8333330150000009  0.1397819970000000   F   F   F
  0.4166670139999979  0.0833330009999997  0.1397819970000000   F   F   F
  0.9166669849999991  0.0833330009999997  0.1397819970000000   F   F   F
  0.4166670139999979  0.5833330150000009  0.1397819970000000   F   F   F
  0.9166669849999991  0.5833330150000009  0.1397819970000000   F   F   F
  0.0811690839005832  0.4150998998318032  0.2059063563514514   T   T   T
  0.5782082475878796  0.4127345733833429  0.2090254001497778   T   T   T
  0.0892924769748984  0.9197350648319917  0.2076625504986814   T   T   T
  0.5804177751611455  0.9125012312832065  0.2081617402720183   T   T   T
  0.0841937513619899  0.1689363647044743  0.2060453461826592   T   T   T
  0.3328453515775797  0.1656339525689086  0.2066041680828532   T   T   T
  0.5834985726240588  0.1663688743804750  0.2071184315265883   T   T   T
  0.8329673434022177  0.1664575390229575  0.2070242998937133   T   T   T
  0.3351383871789527  0.4137613663891854  0.2090497747613078   T   T   T
  0.8340470883162850  0.4143726358773486  0.2061889788955184   T   T   T
  0.0845397439115360  0.6651079545036854  0.2063484412659576   T   T   T
  0.3351394512004662  0.6718773190599502  0.2090650340022487   T   T   T
  0.5880685829581199  0.6769214753681463  0.2138582347749680   T   T   T
  0.8350377797587065  0.6653183136001164  0.2094405136872949   T   T   T
  0.3326591199208028  0.9172282995048728  0.2067136114547806   T   T   T
  0.8289720085328541  0.9153537443532751  0.2090555742435418   T   T   T
  0.0065913097490062  0.0130441990514260  0.2796743638259862   T   T   T
  0.2532330523682227  0.0020100667253846  0.2793548799231970   T   T   T
  0.4983812446033096  0.9998935206059514  0.2779004288754972   T   T   T
  0.7477995868597207  0.0012628635946532  0.2785106348397624   T   T   T
  0.9998762382065277  0.2495935152468588  0.2776929339918527   T   T   T
  0.4964575609090292  0.2454236692580911  0.2789490172101227   T   T   T
  0.0004065173591506  0.4983538457376844  0.2779047402640475   T   T   T
  0.2372739475700803  0.4939849394170116  0.2791076978651403   T   T   T
  0.4907272523585045  0.4810667507165278  0.3031702371844858   T   T   T
  0.7545747124424603  0.4904114361378984  0.2802550411852280   T   T   T
  0.0092298449009234  0.7456202714011337  0.2809742593462127   T   T   T
  0.4959969428299547  0.7648653379109556  0.2992116414237512   T   T   T
  0.2496446298599990  0.2470648681902941  0.2786348419859817   T   T   T
  0.7488258226986686  0.2476439374631609  0.2781682720007303   T   T   T
  0.2505708456512292  0.7528329707494503  0.2793119864213749   T   T   T
  0.7596258333019583  0.7592956368003098  0.3013109713199966   T   T   T
  0.7670998418374586  0.8789537977594003  0.4711062690540875   T   T   T

  0.00000000E+00  0.00000000E+00  0.00000000E+00
  0.00000000E+00  0.00000000E+00  0.00000000E+00
  0.00000000E+00  0.00000000E+00  0.00000000E+00
  0.00000000E+00  0.00000000E+00  0.00000000E+00
  0.00000000E+00  0.00000000E+00  0.00000000E+00
  0.00000000E+00  0.00000000E+00  0.00000000E+00
  0.00000000E+00  0.00000000E+00  0.00000000E+00
  0.00000000E+00  0.00000000E+00  0.00000000E+00
  0.00000000E+00  0.00000000E+00  0.00000000E+00
  0.00000000E+00  0.00000000E+00  0.00000000E+00
  0.00000000E+00  0.00000000E+00  0.00000000E+00
  0.00000000E+00  0.00000000E+00  0.00000000E+00
  0.00000000E+00  0.00000000E+00  0.00000000E+00
  0.00000000E+00  0.00000000E+00  0.00000000E+00
  0.00000000E+00  0.00000000E+00  0.00000000E+00
  0.00000000E+00  0.00000000E+00  0.00000000E+00
  0.00000000E+00  0.00000000E+00  0.00000000E+00
  0.00000000E+00  0.00000000E+00  0.00000000E+00
  0.00000000E+00  0.00000000E+00  0.00000000E+00
  0.00000000E+00  0.00000000E+00  0.00000000E+00
  0.00000000E+00  0.00000000E+00  0.00000000E+00
  0.00000000E+00  0.00000000E+00  0.00000000E+00
  0.00000000E+00  0.00000000E+00  0.00000000E+00
  0.00000000E+00  0.00000000E+00  0.00000000E+00
  0.00000000E+00  0.00000000E+00  0.00000000E+00
  0.00000000E+00  0.00000000E+00  0.00000000E+00
  0.00000000E+00  0.00000000E+00  0.00000000E+00
  0.00000000E+00  0.00000000E+00  0.00000000E+00
  0.00000000E+00  0.00000000E+00  0.00000000E+00
  0.00000000E+00  0.00000000E+00  0.00000000E+00
  0.00000000E+00  0.00000000E+00  0.00000000E+00
  0.00000000E+00  0.00000000E+00  0.00000000E+00
  0.00000000E+00  0.00000000E+00  0.00000000E+00
  0.00000000E+00  0.00000000E+00  0.00000000E+00
  0.00000000E+00  0.00000000E+00  0.00000000E+00
  0.00000000E+00  0.00000000E+00  0.00000000E+00
  0.00000000E+00  0.00000000E+00  0.00000000E+00
  0.00000000E+00  0.00000000E+00  0.00000000E+00
  0.00000000E+00  0.00000000E+00  0.00000000E+00
  0.00000000E+00  0.00000000E+00  0.00000000E+00
  0.00000000E+00  0.00000000E+00  0.00000000E+00
  0.00000000E+00  0.00000000E+00  0.00000000E+00
  0.00000000E+00  0.00000000E+00  0.00000000E+00
  0.00000000E+00  0.00000000E+00  0.00000000E+00
  0.00000000E+00  0.00000000E+00  0.00000000E+00
  0.00000000E+00  0.00000000E+00  0.00000000E+00
  0.00000000E+00  0.00000000E+00  0.00000000E+00
  0.00000000E+00  0.00000000E+00  0.00000000E+00
  0.00000000E+00  0.00000000E+00  0.00000000E+00
  0.00000000E+00  0.00000000E+00  0.00000000E+00
  0.00000000E+00  0.00000000E+00  0.00000000E+00
  0.00000000E+00  0.00000000E+00  0.00000000E+00
  0.00000000E+00  0.00000000E+00  0.00000000E+00
  0.00000000E+00  0.00000000E+00  0.00000000E+00
  0.00000000E+00  0.00000000E+00  0.00000000E+00
  0.00000000E+00  0.00000000E+00  0.00000000E+00
  0.00000000E+00  0.00000000E+00  0.00000000E+00
  0.00000000E+00  0.00000000E+00  0.00000000E+00
  0.00000000E+00  0.00000000E+00  0.00000000E+00
  0.00000000E+00  0.00000000E+00  0.00000000E+00
  0.00000000E+00  0.00000000E+00  0.00000000E+00
  0.00000000E+00  0.00000000E+00  0.00000000E+00
  0.00000000E+00  0.00000000E+00  0.00000000E+00
  0.00000000E+00  0.00000000E+00  0.00000000E+00
  0.00000000E+00  0.00000000E+00  0.00000000E+00
  0.00000000E+00  0.00000000E+00  0.00000000E+00
  0.00000000E+00  0.00000000E+00  0.00000000E+00
  0.00000000E+00  0.00000000E+00  0.00000000E+00
  0.00000000E+00  0.00000000E+00  0.00000000E+00
  0.00000000E+00  0.00000000E+00  0.00000000E+00
  0.00000000E+00  0.00000000E+00  0.00000000E+00
  0.00000000E+00  0.00000000E+00  0.00000000E+00
  0.00000000E+00  0.00000000E+00  0.00000000E+00
  0.00000000E+00  0.00000000E+00  0.00000000E+00
  0.00000000E+00  0.00000000E+00  0.00000000E+00
  0.00000000E+00  0.00000000E+00  0.00000000E+00
  0.00000000E+00  0.00000000E+00  0.00000000E+00
  0.00000000E+00  0.00000000E+00  0.00000000E+00
  0.00000000E+00  0.00000000E+00  0.00000000E+00
  0.00000000E+00  0.00000000E+00  0.00000000E+00
  0.00000000E+00  0.00000000E+00  0.00000000E+00
  0.00000000E+00  0.00000000E+00  0.00000000E+00
  0.00000000E+00  0.00000000E+00  0.00000000E+00
  0.00000000E+00  0.00000000E+00  0.00000000E+00
  0.00000000E+00  0.00000000E+00  0.00000000E+00
  0.00000000E+00  0.00000000E+00  0.00000000E+00
  0.00000000E+00  0.00000000E+00  0.00000000E+00
  0.00000000E+00  0.00000000E+00  0.00000000E+00
  0.00000000E+00  0.00000000E+00  0.00000000E+00
  0.00000000E+00  0.00000000E+00  0.00000000E+00
  0.00000000E+00  0.00000000E+00  0.00000000E+00
  0.00000000E+00  0.00000000E+00  0.00000000E+00
  0.00000000E+00  0.00000000E+00  0.00000000E+00
  0.00000000E+00  0.00000000E+00  0.00000000E+00
  0.00000000E+00  0.00000000E+00  0.00000000E+00
  0.00000000E+00  0.00000000E+00  0.00000000E+00
  0.00000000E+00  0.00000000E+00  0.00000000E+00
  0.00000000E+00  0.00000000E+00  0.00000000E+00
  0.00000000E+00  0.00000000E+00  0.00000000E+00
  0.00000000E+00  0.00000000E+00  0.00000000E+00
  0.00000000E+00  0.00000000E+00  0.00000000E+00
  0.00000000E+00  0.00000000E+00  0.00000000E+00
  0.00000000E+00  0.00000000E+00  0.00000000E+00
