# SGGA calc
# Basic setup:
 ISPIN = 2
 LSORBIT = .FALSE.
 # not using Hubbard U

# Accuracy controls:
 # Use default energy cutoff for PREC

# Electronic loop controls:
 ENCUT = 500
 ALGO = Fast    # 
 EDIFF = 1E-5
 NELM = 500
 TIME = 0.400000
 ISMEAR = 0        
 SIGMA = 0.200000   # eV
 # NBANDS - using default

# Relaxation control:
 IBRION = 1    # Conjugate gradients
 NSW = 4000
 POTIM = 0.500000
 ISIF = 0     
 EDIFFG = -0.050000

# NEB 
 IMAGES = 4
 SPRING = -5
 LCLIMB = .TRUE.

# Parallelization
 NPAR = 4
 LREAL = Auto
 NSIM = 1
 LPLANE = .TRUE.

# vdW correction
# IVDW = 2

# Properties:
 LCHARG = .FALSE.
 LWAVE = .FALSE.
 LELF = .FALSE.
 LVTOT = .FALSE.
 LVHAR = .FALSE.

# Dipole correction
# IDIPOL = 3